(declare-const term_to_project_onto1 Real)
(declare-const term_to_project_onto0 Real)
(declare-const term_to_project_onto Real)
(declare-const y Int)
(assert (exists
         ((uninterp?1 Int) (uninterp?2 Int) (uninterp?3 Int) (|c'?4| Int)
            (|y'?5| Int) (|x'?6| Int) (c?7 Int) (x?8 Int) (k?9 Int)
            (a?10 Int) (z?11 Int))
         (and (<= (+ (- c?7) 1) 0) (<= (- k?9) 0) (<= (- a?10) 0)
                (<= (- z?11) 0)
                (= (+ (- uninterp?3) (- x?8) uninterp?2 a?10) 0)
                (<= (+ (- k?9) c?7 1) 0) (= (+ |c'?4| (- c?7) -1) 0)
                (= (+ |y'?5| (- uninterp?1)) 0)
                (= (+ |x'?6| (- uninterp?2) (- a?10)) 0)
                (= term_to_project_onto1 (+ |x'?6| (- x?8)))
                (= term_to_project_onto0 (+ |y'?5| (- y)))
                (= term_to_project_onto (+ |c'?4| (- c?7))))))
(check-sat)
